c File: flat50_3_0.col
c
c SOURCE: Joseph Culberson (joe@cs.ualberta.ca)
c DESCRIPTION: Quasi-random coloring problem
c              generated with flatness = 0
c                             probability = 0.139
c                             known coloring = 3
c                             random seed = 1439
c              Creation Date:  Tue Jun  9 12:09:23 1998
c Maximum degree = 8 Minimum degree = 2
c p edge 50 115
c cnf created by edge2cnf
p cnf 150 545
-1 -2 0
-1 -3 0
-2 -3 0
1 2 3 0
-4 -5 0
-4 -6 0
-5 -6 0
4 5 6 0
-7 -8 0
-7 -9 0
-8 -9 0
7 8 9 0
-10 -11 0
-10 -12 0
-11 -12 0
10 11 12 0
-13 -14 0
-13 -15 0
-14 -15 0
13 14 15 0
-16 -17 0
-16 -18 0
-17 -18 0
16 17 18 0
-19 -20 0
-19 -21 0
-20 -21 0
19 20 21 0
-22 -23 0
-22 -24 0
-23 -24 0
22 23 24 0
-25 -26 0
-25 -27 0
-26 -27 0
25 26 27 0
-28 -29 0
-28 -30 0
-29 -30 0
28 29 30 0
-31 -32 0
-31 -33 0
-32 -33 0
31 32 33 0
-34 -35 0
-34 -36 0
-35 -36 0
34 35 36 0
-37 -38 0
-37 -39 0
-38 -39 0
37 38 39 0
-40 -41 0
-40 -42 0
-41 -42 0
40 41 42 0
-43 -44 0
-43 -45 0
-44 -45 0
43 44 45 0
-46 -47 0
-46 -48 0
-47 -48 0
46 47 48 0
-49 -50 0
-49 -51 0
-50 -51 0
49 50 51 0
-52 -53 0
-52 -54 0
-53 -54 0
52 53 54 0
-55 -56 0
-55 -57 0
-56 -57 0
55 56 57 0
-58 -59 0
-58 -60 0
-59 -60 0
58 59 60 0
-61 -62 0
-61 -63 0
-62 -63 0
61 62 63 0
-64 -65 0
-64 -66 0
-65 -66 0
64 65 66 0
-67 -68 0
-67 -69 0
-68 -69 0
67 68 69 0
-70 -71 0
-70 -72 0
-71 -72 0
70 71 72 0
-73 -74 0
-73 -75 0
-74 -75 0
73 74 75 0
-76 -77 0
-76 -78 0
-77 -78 0
76 77 78 0
-79 -80 0
-79 -81 0
-80 -81 0
79 80 81 0
-82 -83 0
-82 -84 0
-83 -84 0
82 83 84 0
-85 -86 0
-85 -87 0
-86 -87 0
85 86 87 0
-88 -89 0
-88 -90 0
-89 -90 0
88 89 90 0
-91 -92 0
-91 -93 0
-92 -93 0
91 92 93 0
-94 -95 0
-94 -96 0
-95 -96 0
94 95 96 0
-97 -98 0
-97 -99 0
-98 -99 0
97 98 99 0
-100 -101 0
-100 -102 0
-101 -102 0
100 101 102 0
-103 -104 0
-103 -105 0
-104 -105 0
103 104 105 0
-106 -107 0
-106 -108 0
-107 -108 0
106 107 108 0
-109 -110 0
-109 -111 0
-110 -111 0
109 110 111 0
-112 -113 0
-112 -114 0
-113 -114 0
112 113 114 0
-115 -116 0
-115 -117 0
-116 -117 0
115 116 117 0
-118 -119 0
-118 -120 0
-119 -120 0
118 119 120 0
-121 -122 0
-121 -123 0
-122 -123 0
121 122 123 0
-124 -125 0
-124 -126 0
-125 -126 0
124 125 126 0
-127 -128 0
-127 -129 0
-128 -129 0
127 128 129 0
-130 -131 0
-130 -132 0
-131 -132 0
130 131 132 0
-133 -134 0
-133 -135 0
-134 -135 0
133 134 135 0
-136 -137 0
-136 -138 0
-137 -138 0
136 137 138 0
-139 -140 0
-139 -141 0
-140 -141 0
139 140 141 0
-142 -143 0
-142 -144 0
-143 -144 0
142 143 144 0
-145 -146 0
-145 -147 0
-146 -147 0
145 146 147 0
-148 -149 0
-148 -150 0
-149 -150 0
148 149 150 0
-61 -1 0
-62 -2 0
-63 -3 0
-76 -1 0
-77 -2 0
-78 -3 0
-91 -1 0
-92 -2 0
-93 -3 0
-115 -1 0
-116 -2 0
-117 -3 0
-136 -1 0
-137 -2 0
-138 -3 0
-70 -4 0
-71 -5 0
-72 -6 0
-97 -4 0
-98 -5 0
-99 -6 0
-79 -7 0
-80 -8 0
-81 -9 0
-94 -7 0
-95 -8 0
-96 -9 0
-103 -7 0
-104 -8 0
-105 -9 0
-142 -7 0
-143 -8 0
-144 -9 0
-58 -10 0
-59 -11 0
-60 -12 0
-67 -10 0
-68 -11 0
-69 -12 0
-76 -10 0
-77 -11 0
-78 -12 0
-91 -10 0
-92 -11 0
-93 -12 0
-118 -10 0
-119 -11 0
-120 -12 0
-121 -10 0
-122 -11 0
-123 -12 0
-133 -10 0
-134 -11 0
-135 -12 0
-148 -10 0
-149 -11 0
-150 -12 0
-76 -13 0
-77 -14 0
-78 -15 0
-82 -13 0
-83 -14 0
-84 -15 0
-97 -13 0
-98 -14 0
-99 -15 0
-136 -13 0
-137 -14 0
-138 -15 0
-70 -16 0
-71 -17 0
-72 -18 0
-133 -16 0
-134 -17 0
-135 -18 0
-52 -19 0
-53 -20 0
-54 -21 0
-58 -19 0
-59 -20 0
-60 -21 0
-61 -19 0
-62 -20 0
-63 -21 0
-88 -19 0
-89 -20 0
-90 -21 0
-109 -19 0
-110 -20 0
-111 -21 0
-112 -19 0
-113 -20 0
-114 -21 0
-52 -22 0
-53 -23 0
-54 -24 0
-67 -22 0
-68 -23 0
-69 -24 0
-97 -22 0
-98 -23 0
-99 -24 0
-118 -22 0
-119 -23 0
-120 -24 0
-121 -22 0
-122 -23 0
-123 -24 0
-139 -22 0
-140 -23 0
-141 -24 0
-91 -25 0
-92 -26 0
-93 -27 0
-106 -25 0
-107 -26 0
-108 -27 0
-109 -25 0
-110 -26 0
-111 -27 0
-112 -25 0
-113 -26 0
-114 -27 0
-58 -28 0
-59 -29 0
-60 -30 0
-64 -28 0
-65 -29 0
-66 -30 0
-100 -28 0
-101 -29 0
-102 -30 0
-118 -28 0
-119 -29 0
-120 -30 0
-124 -28 0
-125 -29 0
-126 -30 0
-133 -28 0
-134 -29 0
-135 -30 0
-148 -28 0
-149 -29 0
-150 -30 0
-118 -31 0
-119 -32 0
-120 -33 0
-148 -31 0
-149 -32 0
-150 -33 0
-61 -34 0
-62 -35 0
-63 -36 0
-79 -34 0
-80 -35 0
-81 -36 0
-85 -34 0
-86 -35 0
-87 -36 0
-58 -37 0
-59 -38 0
-60 -39 0
-64 -37 0
-65 -38 0
-66 -39 0
-70 -37 0
-71 -38 0
-72 -39 0
-55 -40 0
-56 -41 0
-57 -42 0
-109 -40 0
-110 -41 0
-111 -42 0
-112 -40 0
-113 -41 0
-114 -42 0
-121 -40 0
-122 -41 0
-123 -42 0
-142 -40 0
-143 -41 0
-144 -42 0
-52 -43 0
-53 -44 0
-54 -45 0
-73 -43 0
-74 -44 0
-75 -45 0
-109 -43 0
-110 -44 0
-111 -45 0
-139 -43 0
-140 -44 0
-141 -45 0
-142 -43 0
-143 -44 0
-144 -45 0
-67 -46 0
-68 -47 0
-69 -48 0
-70 -46 0
-71 -47 0
-72 -48 0
-79 -46 0
-80 -47 0
-81 -48 0
-94 -46 0
-95 -47 0
-96 -48 0
-136 -46 0
-137 -47 0
-138 -48 0
-145 -46 0
-146 -47 0
-147 -48 0
-148 -46 0
-149 -47 0
-150 -48 0
-67 -49 0
-68 -50 0
-69 -51 0
-103 -49 0
-104 -50 0
-105 -51 0
-115 -49 0
-116 -50 0
-117 -51 0
-130 -49 0
-131 -50 0
-132 -51 0
-142 -49 0
-143 -50 0
-144 -51 0
-112 -52 0
-113 -53 0
-114 -54 0
-136 -52 0
-137 -53 0
-138 -54 0
-142 -52 0
-143 -53 0
-144 -54 0
-148 -52 0
-149 -53 0
-150 -54 0
-139 -55 0
-140 -56 0
-141 -57 0
-115 -61 0
-116 -62 0
-117 -63 0
-142 -61 0
-143 -62 0
-144 -63 0
-103 -64 0
-104 -65 0
-105 -66 0
-130 -64 0
-131 -65 0
-132 -66 0
-133 -64 0
-134 -65 0
-135 -66 0
-103 -67 0
-104 -68 0
-105 -69 0
-124 -67 0
-125 -68 0
-126 -69 0
-136 -67 0
-137 -68 0
-138 -69 0
-145 -67 0
-146 -68 0
-147 -69 0
-106 -70 0
-107 -71 0
-108 -72 0
-109 -70 0
-110 -71 0
-111 -72 0
-115 -70 0
-116 -71 0
-117 -72 0
-127 -70 0
-128 -71 0
-129 -72 0
-142 -73 0
-143 -74 0
-144 -75 0
-109 -76 0
-110 -77 0
-111 -78 0
-112 -76 0
-113 -77 0
-114 -78 0
-145 -76 0
-146 -77 0
-147 -78 0
-133 -79 0
-134 -80 0
-135 -81 0
-127 -82 0
-128 -83 0
-129 -84 0
-106 -85 0
-107 -86 0
-108 -87 0
-127 -85 0
-128 -86 0
-129 -87 0
-142 -85 0
-143 -86 0
-144 -87 0
-106 -88 0
-107 -89 0
-108 -90 0
-109 -88 0
-110 -89 0
-111 -90 0
-112 -88 0
-113 -89 0
-114 -90 0
-118 -91 0
-119 -92 0
-120 -93 0
-136 -91 0
-137 -92 0
-138 -93 0
-121 -94 0
-122 -95 0
-123 -96 0
-133 -94 0
-134 -95 0
-135 -96 0
-103 -100 0
-104 -101 0
-105 -102 0
-121 -100 0
-122 -101 0
-123 -102 0
-139 -100 0
-140 -101 0
-141 -102 0
